c ---- [ banner ] ------------------------------------------------------------
c
c Kissat SAT Solver
c 
c Copyright (c) 2021-2024 Armin Biere University of Freiburg
c Copyright (c) 2019-2021 Armin Biere Johannes Kepler University Linz
c 
c Version 4.0.1 43f02cf3e992cb44653b35e5cb26f93281552ae0
c gcc (Ubuntu 13.2.0-23ubuntu4) 13.2.0 -W -Wall -O3 -DNDEBUG
c Thu Sep 12 12:27:46 CEST 2024 Linux abryzen9 6.8.0-41-generic x86_64
c
c ---- [ parsing ] -----------------------------------------------------------
c
c opened and reading DIMACS file:
c
c   /data/artifact/AMulet2.0_artifact/exp4/cnf_sopb_64/64_64_U_SP_DT_SE_GenMul_sopb.cnf
c
c parsed 'p cnf 27349 123110' header
c closing input after reading 2470868 bytes (2 MB)
c finished parsing after 0.03 seconds
c
c ---- [ options ] -----------------------------------------------------------
c
c --stable=0                       (different from default '1')
c
c ---- [ solving ] -----------------------------------------------------------
c
c  seconds switched rate     size/glue tier1  binary          remaining
c         MB reductions conflicts size  tier2    irredundant
c          level restarts redundant glue  trail          variables
c
c *  0.03 10 0 0 0  0 0   0   0 0.0 0 0 0 0 0% 9841 113267 27346 100%
c (  0.06 12 0 0 0  0 0   0   0 0.0 0 0 0 0 0% 9841 113267 27346 100%
c .  0.07 12 0 0 0  0 0   0   0 0.0 0 0 0 0 0% 9837 113267 27346 100%
c c  0.15 17 0 0 0  0 0   0   0 0.0 0 0 0 0 0% 13994 104979 25274 92%
c d  0.16 17 0 0 0  0 0   0   0 0.0 0 0 0 0 0% 9850 104979 25274 92%
c =  0.21 17 0 0 0  0 0   0   0 0.0 0 0 0 0 0% 9944 104978 25227 92%
c d  0.22 17 0 0 0  0 0   0   0 0.0 0 0 0 0 0% 9849 104978 25227 92%
c f  0.34 16 0 0 0  0 0   0   0 0.0 0 0 0 0 0% 14918 96964 28112 103%
c e  0.54 22 0 0 0  0 0   0   0 0.0 0 0 0 0 0% 9102 105249 19331 71%
c )  0.54 22 0 0 0  0 0   0   0 0.0 0 0 0 0 0% 9102 105249 19331 71%
c {  0.57 23 0 0 0  0 0   0   0 0.0 0 0 2 6 0% 9102 105249 19331 71%
c -  0.79 24 106 0 1 265 30 1000 641 3.1 17 5 3 10 18% 9168 105248 19331 71%
c -  1.10 24 181 0 2 460 36 2000 1256 4.7 31 6 3 11 22% 9210 105248 19331 71%
c c  1.24 20 289 0 2 502 35 2502 1680 4.6 29 6 3 11 22% 9229 105088 19303 71%
c d  1.25 20 289 0 2 502 35 2502 1645 4.6 29 6 3 11 22% 9173 105088 19303 71%
c u  1.27 20 289 0 2 502 35 2502 1342 4.6 29 6 3 11 22% 9183 105088 19303 71%
c v  1.30 20 289 0 2 502 35 2502 1140 4.6 29 6 3 11 22% 9184 105088 19303 71%
c w  1.31 20 289 0 2 502 35 2502 1140 4.6 29 6 3 11 22% 9184 105088 19303 71%
c x  1.34 22 289 0 2 502 35 2502 1140 4.6 29 6 3 11 22% 9184 105046 19303 71%
c =  1.42 22 289 0 2 502 35 2502 1140 4.6 29 6 3 11 22% 9242 105046 19274 70%
c
c  seconds   switched   rate       size/glue tier1     binary          remaining
c         MB  reductions conflicts       size  tier2      irredundant
c           level restarts    redundant    glue    trail          variables
c
c d  1.42 22 289 0 2 502 35 2502 1140 4.6 29 6 3 11 22% 9183 105046 19274 70%
c t  1.44 22 289 0 2 502 35 2502 1140 4.6 29 6 3 11 22% 9180 105046 19274 70%
c f  1.46 22 289 0 2 502 35 2502 1140 4.6 29 6 3 11 22% 10152 103252 20049 73%
c u  1.54 22 289 0 2 502 35 2502 1107 4.6 29 6 3 11 22% 10152 103252 20049 73%
c v  1.56 22 289 0 2 502 35 2502 1070 4.6 29 6 3 11 22% 10152 103252 20049 73%
c w  1.60 22 289 0 2 502 35 2502 1066 4.6 29 6 3 11 22% 10152 103252 20049 73%
c =  1.67 22 289 0 2 502 35 2502 1066 4.6 29 6 3 11 22% 10494 103252 19878 73%
c d  1.68 22 289 0 2 502 35 2502 1065 4.6 29 6 3 11 22% 10092 103252 19878 73%
c t  1.69 22 289 0 2 502 35 2502 1065 4.6 29 6 3 11 22% 10091 103252 19878 73%
c f  1.72 22 289 0 2 502 35 2502 1065 4.6 29 6 3 11 22% 10657 102400 20162 74%
c -  2.14 23 290 0 3 700 40 3414 1558 4.0 44 11 3 13 25% 10675 102400 20162 74%
c -  2.37 23 375 0 4 755 32 5146 2567 3.6 35 10 3 13 24% 10726 102400 20162 74%
c -  2.88 23 371 0 5 931 30 7147 3728 3.7 36 10 3 14 27% 10743 102400 20162 74%
c d  3.04 23 359 0 5 987 30 7707 4240 3.8 37 10 3 14 27% 10704 102400 20140 74%
c u  3.08 23 359 0 5 987 30 7707 3663 3.8 37 10 3 14 27% 10713 102400 20140 74%
c v  3.12 23 359 0 5 987 30 7707 3309 3.8 37 10 3 14 27% 10713 102400 20140 74%
c w  3.15 23 359 0 5 987 30 7707 3309 3.8 37 10 3 14 27% 10713 102400 20140 74%
c x  3.18 23 359 0 5 987 30 7707 3309 3.8 37 10 3 14 27% 10713 102198 20140 74%
c =  3.32 23 359 0 5 987 30 7707 3309 3.8 37 10 3 14 27% 11759 102198 19617 72%
c d  3.33 23 359 0 5 987 30 7707 3290 3.8 37 10 3 14 27% 10571 102198 19615 72%
c
c  seconds   switched   rate       size/glue  tier1     binary           remaining
c         MB  reductions conflicts       size   tier2       irredundant
c           level restarts    redundant     glue    trail           variables
c
c t  3.35 23 359 0 5 987 30 7707 3290 3.8 37 10 3 14 27% 10552 102198 19615 72%
c f  3.39 23 359 0 5 987 30 7707 3290 3.8 37 10 3 14 27% 11210 101202 19944 73%
c u  3.44 23 359 0 5 987 30 7707 3178 3.8 37 10 3 14 27% 11210 101202 19944 73%
c v  3.47 23 359 0 5 987 30 7707 3054 3.8 37 10 3 14 27% 11210 101202 19944 73%
c w  3.50 23 359 0 5 987 30 7707 3051 3.8 37 10 3 14 27% 11210 101202 19944 73%
c x  3.52 23 359 0 5 987 30 7707 3051 3.8 37 10 3 14 27% 11210 100649 19944 73%
c =  3.61 23 359 0 5 987 30 7707 3051 3.8 37 10 3 14 27% 12036 100649 19531 71%
c d  3.62 23 359 0 5 987 30 7707 3044 3.8 37 10 3 14 27% 11077 100649 19531 71%
c t  3.63 23 359 0 5 987 30 7707 3044 3.8 37 10 3 14 27% 11062 100649 19531 71%
c f  3.66 23 359 0 5 987 30 7707 3044 3.8 37 10 3 14 27% 13102 97587 20553 75%
c -  3.84 23 334 0 6 1052 27 9383 3748 3.8 35 9 3 13 27% 13152 97587 20553 75%
c o  3.90 23 316 0 6 1054 26 10084 4410 3.7 34 9 3 13 27% 13155 97587 20553 75%
c -  4.22 23 287 0 7 1176 25 11832 5112 3.9 35 9 3 12 27% 13194 97587 20553 75%
c s  4.31 23 274 0 7 1190 24 12508 5751 3.8 34 9 3 12 26% 13195 93494 20553 75%
c e  4.42 23 274 0 7 1190 24 12508 5751 3.8 34 9 3 12 26% 12732 93817 20066 73%
c 2  4.42 23 274 0 7 1190 24 12508 5751 3.8 34 9 3 12 26% 12729 93817 20066 73%
c s  4.43 23 274 0 7 1190 24 12508 5751 3.8 34 9 3 12 26% 12745 93509 20066 73%
c e  4.44 23 274 0 7 1190 24 12508 5751 3.8 34 9 3 12 26% 12622 93576 20006 73%
c ^  4.44 23 274 0 7 1190 24 12508 5751 3.8 34 9 3 12 26% 12622 93576 20006 73%
c -  4.83 24 259 0 8 1313 23 14477 5922 3.9 34 9 2 10 26% 12677 93576 20006 73%
c
c  seconds   switched    rate        size/glue tier1     binary          remaining
c         MB  reductions   conflicts       size  tier2       irredundant
c           level  restarts     redundant    glue    trail          variables
c
c d  4.92 24 250 0 8 1330 22 15785 7041 3.8 32 9 2 10 25% 12352 93576 19802 72%
c u  4.95 24 250 0 8 1330 22 15785 6266 3.8 32 9 2 10 25% 12363 93576 19802 72%
c v  4.98 24 250 0 8 1330 22 15785 5804 3.8 32 9 2 10 25% 12366 93576 19802 72%
c w  5.00 24 250 0 8 1330 22 15785 5801 3.8 32 9 2 10 25% 12366 93576 19802 72%
c x  5.02 24 250 0 8 1330 22 15785 5801 3.8 32 9 2 10 25% 12366 93471 19802 72%
c =  5.13 24 250 0 8 1330 22 15785 5801 3.8 32 9 2 10 25% 13226 93471 19372 71%
c d  5.14 24 250 0 8 1330 22 15785 5718 3.8 32 9 2 10 25% 12312 93471 19372 71%
c t  5.15 24 250 0 8 1330 22 15785 5718 3.8 32 9 2 10 25% 12261 93471 19372 71%
c f  5.19 24 250 0 8 1330 22 15785 5718 3.8 32 9 2 10 25% 12350 93289 19417 71%
c u  5.22 24 250 0 8 1330 22 15785 5543 3.8 32 9 2 10 25% 12354 93289 19417 71%
c v  5.25 24 250 0 8 1330 22 15785 5029 3.8 32 9 2 10 25% 12356 93289 19417 71%
c w  5.27 24 250 0 8 1330 22 15785 5011 3.8 32 9 2 10 25% 12357 93289 19417 71%
c =  5.39 24 250 0 8 1330 22 15785 5011 3.8 32 9 2 10 25% 13143 93289 19024 70%
c d  5.39 24 250 0 8 1330 22 15785 4984 3.8 32 9 2 10 25% 12002 93289 19024 70%
c -  5.68 24 243 0 9 1430 22 17305 5426 3.8 32 8 2 9 27% 12023 93289 19024 70%
c o  6.10 24 253 0 9 1645 24 20142 7997 3.9 33 9 2 9 28% 12068 93289 19024 70%
c -  6.13 24 253 0 10 1658 24 20307 6967 3.9 33 9 2 10 28% 12072 93289 19024 70%
c -  6.51 24 266 0 11 1841 24 23469 8306 3.9 33 9 2 10 27% 12123 93289 19024 70%
c s  6.79 24 266 0 11 1960 24 25009 9589 4.0 34 9 2 10 28% 12152 89892 19024 70%
c e  6.87 24 266 0 11 1960 24 25009 9589 4.0 34 9 2 10 28% 9068 93715 17372 64%
c
c  seconds   switched     rate        size/glue tier1     binary         remaining
c         MB   reductions   conflicts       size  tier2      irredundant
c           level   restarts     redundant    glue    trail         variables
c
c s  6.88 24 266 0 11 1960 24 25009 9589 4.0 34 9 2 10 28% 9073 93545 17372 64%
c e  6.88 24 266 0 11 1960 24 25009 9589 4.0 34 9 2 10 28% 9040 93588 17360 63%
c ^  6.88 24 266 0 11 1960 24 25009 9589 4.0 34 9 2 10 28% 9040 93588 17360 63%
c -  7.13 24 275 0 12 2086 24 26785 8455 4.0 34 9 2 10 28% 9086 93588 17360 63%
c c  7.19 24 275 0 12 2095 24 26914 8561 4.0 34 9 2 10 28% 9110 93458 17339 63%
c d  7.20 24 275 0 12 2095 24 26914 8544 4.0 34 9 2 10 28% 8778 93458 17165 63%
c u  7.22 24 275 0 12 2095 24 26914 7609 4.0 34 9 2 10 28% 8794 93458 17165 63%
c v  7.25 24 275 0 12 2095 24 26914 6610 4.0 34 9 2 10 28% 8796 93458 17165 63%
c w  7.27 24 275 0 12 2095 24 26914 6610 4.0 34 9 2 10 28% 8796 93458 17165 63%
c x  7.32 24 275 0 12 2095 24 26914 6609 4.0 34 9 2 10 28% 8796 91982 17165 63%
c =  7.51 24 275 0 12 2095 24 26914 6609 4.0 34 9 2 10 28% 12398 91973 15364 56%
c d  7.52 24 275 0 12 2095 24 26914 6306 4.0 34 9 2 10 28% 8693 91973 15364 56%
c t  7.53 24 275 0 12 2095 24 26914 6306 4.0 34 9 2 10 28% 8682 91973 15364 56%
c f  7.58 24 275 0 12 2095 24 26914 6306 4.0 34 9 2 10 28% 8719 91876 15383 56%
c u  7.60 24 275 0 12 2095 24 26914 5986 4.0 34 9 2 10 28% 8719 91876 15383 56%
c v  7.62 24 275 0 12 2095 24 26914 5850 4.0 34 9 2 10 28% 8719 91876 15383 56%
c w  7.64 24 275 0 12 2095 24 26914 5849 4.0 34 9 2 10 28% 8719 91876 15383 56%
c x  7.72 24 275 0 12 2095 24 26914 5849 4.0 34 9 2 10 28% 8719 84261 15383 56%
c =  7.94 24 275 0 12 2095 24 26914 5849 4.0 34 9 2 10 28% 10017 84261 14734 54%
c d  7.94 24 275 0 12 2095 24 26914 5823 4.0 34 9 2 10 28% 8698 84261 14734 54%
c
c  seconds   switched     rate        size/glue tier1     binary         remaining
c         MB   reductions   conflicts       size  tier2      irredundant
c           level   restarts     redundant    glue    trail         variables
c
c -  8.29 24 273 0 13 2302 24 30249 7719 3.9 34 9 2 10 28% 8729 84261 14734 54%
c -  8.50 24 268 0 14 2434 23 33856 9577 3.8 32 8 2 9 27% 8782 84261 14734 54%
c -  8.73 24 260 0 15 2577 22 37597 11172 3.7 30 8 2 9 26% 8822 84259 14734 54%
c o  9.11 24 253 0 15 2804 22 40202 13519 3.7 30 8 2 9 27% 8844 84259 14734 54%
c c  9.31 24 253 0 15 2921 22 41244 14531 3.7 30 8 2 9 27% 8926 83723 14645 54%
c d  9.32 24 253 0 15 2921 22 41244 14310 3.7 30 8 2 9 27% 8748 83723 14645 54%
c u  9.35 24 253 0 15 2921 22 41244 12181 3.7 30 8 2 9 27% 8763 83723 14645 54%
c v  9.38 24 253 0 15 2921 22 41244 11590 3.7 30 8 2 9 27% 8764 83723 14645 54%
c w  9.41 24 253 0 15 2921 22 41244 11590 3.7 30 8 2 9 27% 8764 83723 14645 54%
c x  9.45 24 253 0 15 2921 22 41244 11590 3.7 30 8 2 9 27% 8764 78651 14645 54%
c d  9.58 24 253 0 15 2921 22 41244 11570 3.7 30 8 2 9 27% 8752 78651 14639 54%
c t  9.59 24 253 0 15 2921 22 41244 11570 3.7 30 8 2 9 27% 8750 78651 14639 54%
c f  9.60 24 253 0 15 2921 22 41244 11570 3.7 30 8 2 9 27% 8754 78641 14641 54%
c c  9.64 24 253 0 15 2921 22 41244 11536 3.7 30 8 2 9 27% 8760 78617 14638 54%
c d  9.64 24 253 0 15 2921 22 41244 11536 3.7 30 8 2 9 27% 8754 78617 14638 54%
c u  9.67 24 253 0 15 2921 22 41244 11187 3.7 30 8 2 9 27% 8760 78617 14638 54%
c v  9.70 24 253 0 15 2921 22 41244 10207 3.7 30 8 2 9 27% 8769 78617 14638 54%
c w  9.73 24 253 0 15 2921 22 41244 10207 3.7 30 8 2 9 27% 8769 78617 14638 54%
c x  9.76 24 253 0 15 2921 22 41244 10207 3.7 30 8 2 9 27% 8769 77272 14638 54%
c d  9.77 24 253 0 15 2921 22 41244 10202 3.7 30 8 2 9 27% 8761 77272 14634 54%
c
c  seconds   switched     rate         size/glue tier1    binary         remaining
c         MB   reductions   conflicts        size  tier2     irredundant
c           level   restarts      redundant    glue   trail         variables
c
c f  9.78 24 253 0 15 2921 22 41244 10202 3.7 30 8 2 9 27% 8765 77262 14636 54%
c -  9.80 24 252 0 16 2936 22 41469 9013 3.7 30 8 2 8 27% 8771 77262 14636 54%
c - 10.06 24 246 0 17 3088 22 45469 10849 3.6 29 8 2 8 26% 8799 77261 14636 54%
c - 10.39 24 247 0 18 3319 21 49592 12673 3.6 29 8 2 8 26% 8837 77260 14636 54%
c s 10.58 24 245 0 18 3447 21 52109 14733 3.5 28 8 2 8 25% 8885 74857 14636 54%
c e 10.64 24 245 0 18 3447 21 52109 14733 3.5 28 8 2 8 25% 8393 75712 14252 52%
c s 10.64 24 245 0 18 3447 21 52109 14733 3.5 28 8 2 8 25% 8395 75515 14252 52%
c e 10.65 24 245 0 18 3447 21 52109 14733 3.5 28 8 2 8 25% 8389 75522 14246 52%
c ^ 10.65 24 245 0 18 3447 21 52109 14733 3.5 28 8 2 8 25% 8389 75522 14246 52%
c - 10.84 24 246 0 19 3599 21 53835 13164 3.6 28 8 2 8 25% 8431 75522 14246 52%
c - 11.33 24 245 0 20 4002 22 58194 14969 3.5 28 8 2 8 25% 8491 75522 14246 52%
c d 11.37 24 247 0 20 4039 22 58886 15373 3.5 28 8 2 8 25% 8438 75522 14205 52%
c u 11.41 24 247 0 20 4039 22 58886 12932 3.5 28 8 2 8 25% 8481 75522 14205 52%
c v 11.45 24 247 0 20 4039 22 58886 11480 3.5 28 8 2 8 25% 8488 75522 14205 52%
c w 11.47 24 247 0 20 4039 22 58886 11477 3.5 28 8 2 8 25% 8488 75522 14205 52%
c x 11.51 24 247 0 20 4039 22 58886 11475 3.5 28 8 2 8 25% 8488 74601 14205 52%
c = 11.67 24 247 0 20 4039 22 58886 11475 3.5 28 8 2 8 25% 8854 74601 14022 51%
c d 11.68 24 247 0 20 4039 22 58886 11367 3.5 28 8 2 8 25% 8432 74600 14006 51%
c t 11.69 24 247 0 20 4039 22 58886 11367 3.5 28 8 2 8 25% 8424 74600 14006 51%
c f 11.70 24 247 0 20 4039 22 58886 11367 3.5 28 8 2 8 25% 8430 74579 14009 51%
c
c  seconds   switched     rate         size/glue tier1    binary         remaining
c         MB   reductions   conflicts        size  tier2     irredundant
c           level   restarts      redundant    glue   trail         variables
c
c c 11.74 24 247 0 20 4039 22 58886 11320 3.5 28 8 2 8 25% 8481 74361 13982 51%
c d 11.74 24 247 0 20 4039 22 58886 11320 3.5 28 8 2 8 25% 8427 74361 13982 51%
c u 11.77 24 247 0 20 4039 22 58886 10713 3.5 28 8 2 8 25% 8448 74361 13982 51%
c v 11.80 24 247 0 20 4039 22 58886 10442 3.5 28 8 2 8 25% 8449 74361 13982 51%
c w 11.83 24 247 0 20 4039 22 58886 10433 3.5 28 8 2 8 25% 8449 74361 13982 51%
c x 11.91 24 247 0 20 4039 22 58886 10431 3.5 28 8 2 8 25% 8449 72862 13982 51%
c = 12.10 24 247 0 20 4039 22 58886 10431 3.5 28 8 2 8 25% 9163 72862 13625 50%
c d 12.10 24 247 0 20 4039 22 58886 10219 3.5 28 8 2 8 25% 8401 72862 13617 50%
c f 12.13 24 247 0 20 4039 22 58886 10219 3.5 28 8 2 8 25% 8403 72855 13618 50%
c - 12.34 24 249 0 21 4191 21 62666 12006 3.5 28 8 2 7 25% 8443 72855 13618 50%
c - 12.62 24 255 0 22 4393 21 67248 14229 3.5 27 8 2 7 25% 8501 72855 13618 50%
c o 12.81 24 254 0 22 4515 21 70214 16697 3.4 26 8 2 7 24% 8539 72855 13618 50%
c - 13.21 24 251 0 23 4846 21 71939 16177 3.5 27 8 2 7 25% 8547 72855 13618 50%
c - 13.69 24 245 0 24 5197 21 76735 17921 3.5 27 8 2 7 25% 8623 72855 13618 50%
c c 14.11 24 239 0 24 5511 21 79970 20824 3.4 27 8 2 7 25% 8752 72049 13452 49%
c d 14.11 24 239 0 24 5511 21 79970 20255 3.4 27 8 2 7 25% 8420 72049 13452 49%
c u 14.16 24 239 0 24 5511 21 79970 16888 3.4 27 8 2 7 25% 8466 72049 13452 49%
c v 14.20 24 239 0 24 5511 21 79970 15665 3.4 27 8 2 7 25% 8468 72049 13452 49%
c w 14.23 24 239 0 24 5511 21 79970 15665 3.4 27 8 2 7 25% 8468 72049 13452 49%
c x 14.27 24 239 0 24 5511 21 79970 15665 3.4 27 8 2 7 25% 8468 71660 13452 49%
c
c  seconds   switched     rate         size/glue tier1    binary         remaining
c         MB   reductions   conflicts        size  tier2     irredundant
c           level   restarts      redundant    glue   trail         variables
c
c = 14.47 24 239 0 24 5511 21 79970 15665 3.4 27 8 2 7 25% 9314 71640 13027 48%
c d 14.48 24 239 0 24 5511 21 79970 14684 3.4 27 8 2 7 25% 8376 71636 13019 48%
c t 14.49 24 239 0 24 5511 21 79970 14684 3.4 27 8 2 7 25% 8370 71636 13019 48%
c c 14.54 24 239 0 24 5511 21 79970 14684 3.4 27 8 2 7 25% 8373 71588 13013 48%
c d 14.54 24 239 0 24 5511 21 79970 14663 3.4 27 8 2 7 25% 8361 71588 13013 48%
c u 14.57 24 239 0 24 5511 21 79970 13805 3.4 27 8 2 7 25% 8366 71588 13013 48%
c v 14.61 24 239 0 24 5511 21 79970 13061 3.4 27 8 2 7 25% 8370 71588 13013 48%
c w 14.67 24 239 0 24 5511 21 79970 13050 3.4 27 8 2 7 25% 8370 71588 13013 48%
c x 14.71 24 239 0 24 5511 21 79970 13050 3.4 27 8 2 7 25% 8370 70039 13013 48%
c = 14.96 24 239 0 24 5511 21 79970 13050 3.4 27 8 2 7 25% 8774 69939 12800 47%
c d 14.96 24 239 0 24 5511 21 79970 12851 3.4 27 8 2 7 25% 8327 69939 12800 47%
c - 15.02 24 235 0 25 5524 21 81636 12628 3.4 26 8 2 7 24% 8359 69939 12800 47%
c i 15.30 24 231 0 25 5737 21 83768 14497 3.4 27 8 2 7 25% 8382 69936 12799 47%
c i 15.30 24 232 0 25 5743 21 84096 14712 3.4 27 8 2 7 25% 8389 69936 12798 47%
c - 15.60 24 229 0 26 5982 21 86636 15087 3.4 27 8 2 7 25% 8419 69931 12798 47%
c i 15.95 24 225 0 26 6309 21 89191 17386 3.4 27 8 2 7 25% 8450 69930 12797 47%
c i 16.01 24 225 0 26 6361 21 89772 17844 3.4 27 8 2 7 25% 8461 69930 12796 47%
c - 16.42 24 222 0 27 6681 21 91736 17316 3.4 28 8 2 6 25% 8459 69930 12796 47%
c i 16.42 24 222 0 27 6681 21 91854 17373 3.4 27 8 2 6 25% 8468 69930 12795 47%
c i 16.45 24 222 0 27 6696 21 92286 17690 3.4 27 8 2 6 25% 8477 69928 12794 47%
c
c  seconds   switched     rate         size/glue tier1    binary         remaining
c         MB   reductions   conflicts        size  tier2     irredundant
c           level   restarts      redundant    glue   trail         variables
c
c i 16.75 24 221 0 27 6896 21 94526 19601 3.4 27 8 2 6 25% 8513 69927 12793 47%
c i 16.76 24 221 0 27 6903 21 94582 19651 3.4 27 8 2 6 25% 8515 69927 12792 47%
c i 16.97 24 221 0 27 7018 21 95217 20229 3.4 28 8 2 6 26% 8522 69926 12791 47%
c s 17.08 24 220 0 27 7093 22 95804 20787 3.4 28 8 2 6 26% 8522 65596 12791 47%
c e 17.15 24 220 0 27 7093 22 95804 20787 3.4 28 8 2 6 26% 5648 72236 11256 41%
c 2 17.15 24 220 0 27 7093 22 95804 20787 3.4 28 8 2 6 26% 5647 72236 11256 41%
c s 17.16 24 220 0 27 7093 22 95804 20787 3.4 28 8 2 6 26% 5650 71642 11256 41%
c e 17.16 24 220 0 27 7093 22 95804 20787 3.4 28 8 2 6 26% 5640 71655 11246 41%
c ^ 17.16 24 220 0 27 7093 22 95804 20787 3.4 28 8 2 6 26% 5640 71655 11246 41%
c - 17.37 24 219 0 28 7253 22 96933 14337 3.4 28 8 2 6 26% 5646 71649 11246 41%
c i 17.46 24 218 0 28 7327 22 97233 14632 3.4 28 8 2 6 26% 5646 71649 11245 41%
c i 17.94 24 213 0 28 7674 22 100610 17656 3.4 28 8 2 6 26% 5669 71648 11244 41%
c - 18.07 24 213 0 29 7777 22 102225 16577 3.4 28 8 2 6 26% 5691 71647 11244 41%
c i 18.10 24 212 0 29 7813 22 102467 16794 3.4 28 8 2 6 26% 5696 71647 11241 41%
c i 18.22 24 211 0 29 7903 21 103339 17592 3.4 28 8 2 6 26% 5701 71645 11240 41%
c i 18.25 24 211 0 29 7920 21 103540 17775 3.4 27 8 2 6 26% 5701 71645 11236 41%
c d 18.34 24 209 0 29 8008 21 104621 18280 3.4 27 8 2 6 26% 5681 71528 11203 41%
c d 18.34 24 209 0 29 8008 21 104621 18261 3.4 27 8 2 6 26% 5658 71528 11192 41%
c u 18.42 24 209 0 29 8008 21 104621 14980 3.4 27 8 2 6 26% 5685 71528 11192 41%
c v 18.50 24 209 0 29 8008 21 104621 12991 3.4 27 8 2 6 26% 5693 71528 11191 41%
c
c  seconds   switched     rate          size/glue tier1    binary         remaining
c         MB   reductions   conflicts         size  tier2     irredundant
c           level   restarts       redundant    glue   trail         variables
c
c w 18.59 24 209 0 29 8008 21 104621 12920 3.4 27 8 2 6 26% 5693 71528 11191 41%
c x 18.66 24 209 0 29 8008 21 104621 12920 3.4 27 8 2 6 26% 5695 71494 11191 41%
c = 19.06 24 209 0 29 8008 21 104621 12920 3.4 27 8 2 6 26% 5861 71414 11102 41%
c d 19.06 24 209 0 29 8008 21 104621 12539 3.4 27 8 2 6 26% 5657 71414 11100 41%
c t 19.07 24 209 0 29 8008 21 104621 12539 3.4 27 8 2 6 26% 5648 71414 11100 41%
c f 19.11 24 209 0 29 8008 21 104621 12539 3.4 27 8 2 6 26% 5649 71403 11101 41%
c c 19.14 24 209 0 29 8008 21 104621 12527 3.4 27 8 2 6 26% 5627 71345 11095 41%
c d 19.15 24 209 0 29 8008 21 104621 12527 3.4 27 8 2 6 26% 5615 71345 11095 41%
c u 19.18 24 209 0 29 8008 21 104621 11724 3.4 27 8 2 6 26% 5621 71345 11095 41%
c v 19.20 24 209 0 29 8008 21 104621 11387 3.4 27 8 2 6 26% 5622 71345 11095 41%
c w 19.28 24 209 0 29 8008 21 104621 11264 3.4 27 8 2 6 26% 5623 71345 11095 41%
c d 19.68 24 209 0 29 8008 21 104621 11262 3.4 27 8 2 6 26% 5617 71345 11092 41%
c t 19.68 24 209 0 29 8008 21 104621 11262 3.4 27 8 2 6 26% 5616 71345 11092 41%
c i 19.69 24 209 0 29 8008 21 104621 11262 3.4 27 8 2 6 26% 5616 71345 11092 41%
c - 19.79 24 204 0 30 8124 21 107610 12075 3.3 27 8 2 6 26% 5638 71339 11092 41%
c i 19.84 24 201 0 30 8188 21 108790 13103 3.3 27 8 2 6 26% 5652 71339 11091 41%
c i 19.86 24 200 0 30 8221 20 109354 13569 3.3 27 8 2 6 25% 5661 71339 11090 41%
c o 19.89 24 199 0 30 8255 20 110216 14211 3.3 27 8 2 6 25% 5670 71339 11090 41%
c - 19.96 24 193 0 31 8355 20 113090 14405 3.3 26 8 2 6 25% 5705 71339 11090 41%
c i 19.96 24 192 0 31 8355 20 113459 14607 3.3 26 8 2 6 25% 5715 71339 11088 41%
c
c  seconds   switched     rate          size/glue tier1    binary         remaining
c         MB   reductions   conflicts         size  tier2     irredundant
c           level   restarts       redundant    glue   trail         variables
c
c i 20.13 24 186 0 31 8595 19 117278 17868 3.2 26 8 2 6 24% 5768 71339 11087 41%
c i 20.14 24 185 0 31 8603 19 117449 18007 3.2 26 8 2 6 24% 5773 71339 11086 41%
c i 20.16 24 183 0 31 8637 19 118530 18842 3.2 25 8 2 6 24% 5801 71339 11084 41%
c i 20.16 24 183 0 31 8637 19 118609 18906 3.2 25 8 2 6 24% 5805 71339 11083 41%
c i 20.16 24 183 0 31 8637 19 118657 18930 3.2 25 8 2 6 24% 5810 71339 11080 41%
c - 20.17 24 183 0 32 8637 19 118657 16031 3.2 25 8 2 6 24% 5789 71339 11080 41%
c } 20.17 24 183 0 32 8637 19 118660 16031 3.2 25 8 2 6 24% 5790 71339 11076 41%
c 0 20.17 24 183 0 32 8637 19 118660 16031 3.2 25 8 2 6 24% 5790 71339 11076 41%
c
c ---- [ result ] ------------------------------------------------------------
c
s UNSATISFIABLE
c
c ---- [ profiling ] ---------------------------------------------------------
c
c          13.10   64.99 %  search
c          13.10   64.99 %  focused
c           6.49   32.20 %  simplify
c           6.32   31.34 %  probe
c           2.80   13.88 %  sweep
c           2.08   10.30 %  vivify
c           0.50    2.48 %  factor
c           0.49    2.42 %  preprocess
c           0.47    2.32 %  congruence
c           0.45    2.26 %  eliminate
c           0.35    1.73 %  substitute
c           0.20    0.97 %  fastel
c           0.13    0.65 %  reduce
c           0.09    0.44 %  transitive
c           0.08    0.42 %  subsume
c           0.05    0.24 %  lucky
c           0.04    0.19 %  backbone
c           0.03    0.16 %  parse
c =============================================
c          20.17  100.00 %  total
c
c ---- [ statistics ] --------------------------------------------------------
c
c chronological:                         3917                3 %  conflicts
c conflicts:                           118660             5884.18 per second
c congruent:                             2418                9 %  variables
c decisions:                          2199791               18.54 per conflict
c eliminated:                           12927               47 %  variables
c factored:                              5368               20 %  variables
c fast_eliminated:                       8781               68 %  eliminated
c fast_strengthened:                      108                9 %  per strengthened
c fast_subsumed:                           42                0 %  per subsumed
c iterations:                              23                0 %  variables
c propagations:                      95900066          4755551    per second
c reductions:                              32             3708    interval
c reordered:                                5            23732    interval
c restarts:                              8637               14    interval
c strengthened:                          1138                0 %  checks
c substituted:                           8653               32 %  variables
c subsumed:                             15444                1 %  checks
c switched:                                 0                0    interval
c vivified:                             57232               12 %  checks
c
c ---- [ glue usage ] --------------------------------------------------------
c
c focused glue 2 used 68714 clauses 23.54% accumulated 72.54% tier1
c focused glue 3 used 22306 clauses  7.64% accumulated 80.18%
c focused glue 4 used 13624 clauses  4.67% accumulated 84.85%
c focused glue 5 used  9523 clauses  3.26% accumulated 88.11%
c focused glue 6 used  6971 clauses  2.39% accumulated 90.50% tier2
c
c ---- [ resources ] ---------------------------------------------------------
c
c maximum-resident-set-size:         25636864 bytes         24 MB
c process-time:                            20s              20.17 seconds
c
c ---- [ shutting down ] -----------------------------------------------------
c
c exit 20
